
--- Job quiz.gms Start 03/06/24 15:42:08 46.1.0 0f6c6ca6 WEX-WEI x86 64bit/MS Windows
--- Applying:
    C:\GAMS\46\gmsprmNT.txt
--- GAMS Parameters defined
    Input C:\Users\LENOVO\Desktop\quiz.gms
    PageSize 0
    ScrDir C:\Users\LENOVO\Desktop\225a\
    SysDir C:\GAMS\46\
    LogOption 3
    ErrMsg 1
    ErrorLog 99
    IDE 1
    LstTitleLeftAligned 1
Licensee: GAMS Demo, for EULA and demo limitations see   G240131/0001CB-GEN
          https://www.gams.com/latest/docs/UG%5FLicense.html         DC0000
          C:\GAMS\46\gamslice.txt
          Demo license for demonstration and instructional purposes only
Processor information: 1 socket(s), 8 core(s), and 16 thread(s) available
GAMS 46.1.0   Copyright (C) 1987-2024 GAMS Development. All rights reserved
--- Starting compilation
--- quiz.gms(39) 3 Mb
--- Starting execution: elapsed 0:00:00.036
--- quiz.gms(37) 4 Mb
--- Generating MIP model ProduccionPortatiles
--- quiz.gms(39) 4 Mb
---   6 rows  7 columns  19 non-zeroes
--- Range statistics (absolute non-zero finite values)
--- RHS       [min, max] : [ 1.000E+00, 3.600E+03] - Zero values observed as well
--- Bound     [min, max] : [        NA,        NA]
--- Matrix    [min, max] : [ 1.000E+00, 2.510E+04]
--- Executing CPLEX (Solvelink=2): elapsed 0:00:00.349

IBM ILOG CPLEX   46.1.0 0f6c6ca6 Feb 17, 2024          WEI x86 64bit/MS Window

*** This solver runs with a demo license. No commercial use.
--- GMO setup time: 0.00s
--- GMO memory 0.50 Mb (peak 0.50 Mb)
--- Dictionary memory 0.00 Mb
--- Cplex 22.1.1.0 link memory 0.00 Mb (peak 0.00 Mb)
--- Starting Cplex

Version identifier: 22.1.1.0 | 2022-11-27 | 9160aff4d
CPXPARAM_Advance                                 0
CPXPARAM_Simplex_Display                         2
CPXPARAM_MIP_Display                             4
CPXPARAM_MIP_Pool_Capacity                       0
CPXPARAM_MIP_Tolerances_AbsMIPGap                0
Tried aggregator 1 time.
LP Presolve eliminated 3 rows and 5 columns.
Aggregator did 2 substitutions.
All rows and columns eliminated.
Presolve time = 0.02 sec. (0.00 ticks)

--- LP status (1): optimal.
--- Cplex Time: 0.02sec (det. 0.01 ticks)


Optimal solution found
Objective:        41037.931034

--- Reading solution for model ProduccionPortatiles
*** Status: Normal completion
--- Job quiz.gms Stop 03/06/24 15:42:10 elapsed 0:00:02.137
